c preprocessed version of 1c4q_graph, 67 vertices, 756 edges
p td 67 756
65 66
64 66
64 65
63 66
63 65
63 64
62 65
62 64
62 63
61 63
61 62
60 65
60 63
60 62
60 61
59 63
59 62
59 61
59 60
58 63
58 60
58 59
57 59
57 58
56 58
56 57
55 60
55 59
55 58
55 57
55 56
54 61
54 60
54 59
54 58
54 57
54 55
53 62
53 61
53 60
53 59
53 58
53 55
53 54
52 63
52 62
52 61
52 60
52 59
52 58
52 55
52 54
52 53
51 66
51 64
51 63
51 62
51 61
51 60
51 58
51 53
51 52
50 65
50 64
50 63
50 62
50 61
50 60
50 59
50 58
50 54
50 52
50 51
49 66
49 65
49 64
49 63
49 62
49 60
49 51
49 50
48 66
48 65
48 64
48 63
48 62
48 60
48 52
48 51
48 50
48 49
47 66
47 65
47 64
47 63
47 50
47 49
47 48
46 66
46 65
46 64
46 63
46 50
46 48
46 47
45 47
45 46
44 65
44 48
44 46
44 45
43 46
43 45
43 44
42 65
42 63
42 60
42 50
42 48
42 46
42 45
42 44
42 43
41 66
41 65
41 64
41 63
41 60
41 50
41 49
41 48
41 47
41 46
41 45
41 44
41 43
41 42
40 65
40 48
40 46
40 44
40 43
40 42
40 41
39 48
39 44
39 43
39 42
39 41
39 40
38 65
38 64
38 63
38 62
38 61
38 60
38 52
38 50
38 49
38 48
38 46
38 42
38 41
38 40
38 39
37 65
37 64
37 63
37 60
37 50
37 48
37 46
37 44
37 42
37 41
37 40
37 39
37 38
36 65
36 63
36 44
36 43
36 41
36 40
36 39
36 38
36 37
35 63
35 42
35 40
35 39
35 38
35 37
35 36
34 65
34 64
34 63
34 62
34 61
34 60
34 59
34 52
34 50
34 48
34 46
34 42
34 41
34 39
34 38
34 37
34 36
34 35
33 65
33 63
33 61
33 41
33 40
33 38
33 37
33 36
33 35
33 34
32 39
32 36
32 35
32 34
32 33
31 63
31 62
31 61
31 60
31 59
31 50
31 38
31 37
31 35
31 34
31 33
31 32
30 61
30 60
30 59
30 54
30 52
30 35
30 34
30 33
30 32
30 31
29 65
29 63
29 62
29 61
29 60
29 59
29 52
29 51
29 50
29 48
29 42
29 41
29 39
29 38
29 37
29 35
29 34
29 33
29 32
29 31
29 30
28 61
28 60
28 59
28 58
28 57
28 56
28 54
28 52
28 50
28 38
28 35
28 34
28 30
28 29
27 63
27 62
27 61
27 60
27 59
27 58
27 57
27 56
27 55
27 54
27 53
27 52
27 51
27 50
27 49
27 48
27 42
27 41
27 38
27 34
27 29
27 28
26 60
26 59
26 58
26 57
26 56
26 52
26 50
26 42
26 38
26 29
26 28
26 27
25 63
25 60
25 58
25 57
25 56
25 55
25 52
25 50
25 48
25 38
25 29
25 28
25 27
25 26
24 56
24 55
24 27
24 26
24 25
23 50
23 49
23 48
23 47
23 27
23 25
23 24
22 65
22 64
22 63
22 60
22 58
22 52
22 50
22 49
22 48
22 47
22 46
22 42
22 41
22 38
22 37
22 34
22 29
22 28
22 27
22 26
22 25
22 24
22 23
21 57
21 56
21 50
21 48
21 42
21 38
21 28
21 27
21 26
21 25
21 24
21 23
21 22
20 65
20 63
20 60
20 59
20 58
20 52
20 50
20 49
20 48
20 46
20 42
20 41
20 39
20 38
20 37
20 35
20 34
20 31
20 29
20 28
20 27
20 26
20 25
20 23
20 22
20 21
19 60
19 59
19 58
19 57
19 56
19 52
19 50
19 42
19 39
19 38
19 35
19 34
19 30
19 29
19 28
19 27
19 26
19 25
19 22
19 21
19 20
18 63
18 61
18 60
18 59
18 50
18 48
18 42
18 41
18 39
18 38
18 37
18 36
18 35
18 34
18 33
18 32
18 31
18 30
18 29
18 28
18 27
18 26
18 22
18 21
18 20
18 19
17 61
17 60
17 59
17 57
17 38
17 35
17 32
17 31
17 30
17 29
17 28
17 27
17 26
17 21
17 20
17 19
17 18
16 35
16 32
16 30
16 18
16 17
15 59
15 57
15 32
15 30
15 29
15 28
15 26
15 19
15 18
15 17
15 16
14 30
14 28
14 19
14 17
14 16
14 15
13 59
13 57
13 38
13 35
13 30
13 29
13 28
13 26
13 21
13 20
13 19
13 18
13 17
13 16
13 15
13 14
12 42
12 39
12 38
12 36
12 35
12 34
12 32
12 29
12 28
12 20
12 19
12 18
12 17
12 16
12 15
12 14
12 13
11 57
11 56
11 42
11 39
11 38
11 35
11 28
11 26
11 21
11 20
11 19
11 18
11 17
11 15
11 14
11 13
11 12
10 65
10 63
10 60
10 50
10 48
10 46
10 43
10 42
10 41
10 40
10 39
10 38
10 37
10 36
10 35
10 34
10 29
10 28
10 27
10 26
10 22
10 21
10 20
10 19
10 18
10 17
10 13
10 12
10 11
9 56
9 43
9 42
9 39
9 38
9 28
9 26
9 22
9 21
9 20
9 19
9 18
9 13
9 11
9 10
8 48
8 45
8 42
8 38
8 26
8 24
8 23
8 22
8 21
8 20
8 19
8 11
8 10
8 9
7 66
7 65
7 63
7 60
7 50
7 49
7 48
7 47
7 46
7 45
7 44
7 43
7 42
7 41
7 40
7 39
7 38
7 37
7 35
7 34
7 29
7 27
7 26
7 25
7 22
7 21
7 20
7 19
7 18
7 11
7 10
7 9
7 8
6 66
6 50
6 48
6 47
6 46
6 45
6 42
6 41
6 38
6 23
6 22
6 21
6 20
6 10
6 8
6 7
5 63
5 60
5 50
5 49
5 48
5 47
5 41
5 38
5 27
5 25
5 24
5 23
5 22
5 21
5 20
5 8
5 7
5 6
4 66
4 65
4 64
4 63
4 51
4 50
4 49
4 48
4 47
4 46
4 27
4 25
4 24
4 23
4 22
4 7
4 6
4 5
3 63
3 60
3 58
3 56
3 55
3 52
3 51
3 50
3 49
3 48
3 47
3 42
3 41
3 38
3 34
3 29
3 27
3 26
3 25
3 24
3 23
3 22
3 21
3 20
3 19
3 10
3 8
3 7
3 6
3 5
3 4
2 66
2 64
2 63
2 62
2 52
2 51
2 50
2 49
2 48
2 47
2 23
2 22
2 5
2 4
2 3
1 62
1 60
1 55
1 53
1 52
1 51
1 49
1 4
1 2
0 64
0 63
0 62
0 61
0 60
0 59
0 54
0 53
0 52
0 51
0 50
0 49
0 31
0 27
0 2
0 1
